NAME: 2'-Deoxycytidine 5'-diphosphate; LC-ESI-QTOF; MS2; CE
PRECURSORMZ: 386.015991
PRECURSORTYPE: [M-H]-
INSTRUMENTTYPE: LC-ESI-QTOF
INSTRUMENT: UPLC Q-Tof Premier, Waters
Authors: 
License: CC BY-SA
SMILES: NC(C=2)=NC(=O)N(C2)[C@@H](C1)O[C@H](COP(O)(=O)OP(O)(O)=O)[C@@H](O)1
INCHI: InChI=1S/C9H15N3O10P2/c10-7-1-2-12(9(14)11-7)8-3-5(13)6(21-8)4-20-24(18,19)22-23(15,16)17/h1-2,5-6,8,13H,3-4H2,(H,18,19)(H2,10,11,14)(H2,15,16,17)/t5-,6+,8+/m0/s1
INCHIKEY: FTDHDKPUHBLBTL-SHYZEUOFSA-N
COLLISIONENERGY: 
FORMULA: C9H15N3O10P2
RETENTIONTIME: -1
IONMODE: Negative
Links: MassBank PR100523; CAS 800-73-7; CHEMSPIDER 132961; KEGG C00705; PUBCHEM CID;
Comment: 
Num Peaks: 8
78.9597	999
96.9693	73
158.9249	546
162.8948	44
256.9616	111
274.9731	76
368.003	135
386.0155	837
