NAME: 3-Indoxyl sulfate; LC-ESI-QTOF; MS2; CE
PRECURSORMZ: 212.002302
PRECURSORTYPE: [M-H]-
INSTRUMENTTYPE: LC-ESI-QTOF
INSTRUMENT: UPLC Q-Tof Premier, Waters
Authors: 
License: CC BY-SA
SMILES: [c@@H]([c@@H]2)[c@@H][c@@](n1)[c@]([c@H]2)[c@@]([c@@H]1)OS(O)(=O)=O
INCHI: InChI=1S/C8H7NO4S/c10-14(11,12)13-8-5-9-7-4-2-1-3-6(7)8/h1-5,9H,(H,10,11,12)
INCHIKEY: BXFFHSIDQOFMLE-UHFFFAOYSA-N
COLLISIONENERGY: 
FORMULA: C8H7NO4S
RETENTIONTIME: -1
IONMODE: Negative
Links: MassBank PR100831; CAS 487-94-5; CHEMSPIDER 9840; PUBCHEM CID;
Comment: 
Num Peaks: 4
79.9588	999
80.9665	529
132.046	533
212.0018	980
