NAME: Cilastatin; LC-ESI-ITFT; MS2; CE
PRECURSORMZ: 357.148967
PRECURSORTYPE: [M-H]-
INSTRUMENTTYPE: LC-ESI-ITFT
INSTRUMENT: LTQ Orbitrap XL Thermo Scientific
Authors: 
License: CC BY-SA
SMILES: [H][C@](N)(CSCCCC\C=C(/NC(=O)[C@@]1([H])CC1(C)C)C(O)=O)C(O)=O
INCHI: InChI=1S/C16H26N2O5S/c1-16(2)8-10(16)13(19)18-12(15(22)23)6-4-3-5-7-24-9-11(17)14(20)21/h6,10-11H,3-5,7-9,17H2,1-2H3,(H,18,19)(H,20,21)(H,22,23)/b12-6-/t10-,11+/m1/s1
INCHIKEY: DHSUYTOATWAVLW-WFVMDLQDSA-N
COLLISIONENERGY: 30
FORMULA: C16H26N2O5S
RETENTIONTIME: 5.2
IONMODE: Negative
Links: MassBank EA255553; CAS 82009-34-5; KEGG D07698; PUBCHEM CID; INCHIKEY DHSUYTOATWAVLW-WFVMDLQDSA-N; CHEMSPIDER 4940183;
Comment: 
Num Peaks: 8
112.0767	97
113.0426	15
192.1392	47
226.1272	999
270.1165	65
295.148	13
313.1589	181
357.1492	236
