NAME: Phospho(enol)pyruvic acid
PRECURSORMZ: 168.9897
PRECURSORTYPE: [M+H]+
INSTRUMENTTYPE: HCD
INSTRUMENT: Thermo Finnigan Elite Orbitrap
Authors: NIST Mass Spectrometry Data Center
License: 
SMILES: OC(=O)C(=C)OP(O)(O)=O
INCHI: 
INCHIKEY: DTBNBXWJWCWCIK-UHFFFAOYSA-N
COLLISIONENERGY: 21
FORMULA: C3H5O6P
RETENTIONTIME: 
IONMODE: Positive
MASSBANKACCESSION: 
Links: 58114173
Comment: 
Num Peaks: 70
56.0563	0.4
57.0699	0.5
58.3978	0.6
58.4737	0.4
60.3136	0.5
62.9628	2.9
64.8112	0.5
64.9785	22.78
67.0542	1.1
69.0699	0.5
69.9017	0.4
71.0127	0.5
71.0491	0.5
75.3823	0.5
75.9967	0.5
79.0539	0.6
80.9734	117.18
81.0696	3.2
81.981	0.5
82.5167	0.5
82.9893	0.6
84.6241	0.4
85.0282	4.3
87.6514	0.4
89.0233	1
92.7238	0.5
94.9892	34.67
95.0855	1.5
98.9841	999
100.2601	0.5
100.9882	1.4
103.5215	0.5
104.9002	6.29
104.9735	47.35
105.0698	0.9
105.761	0.5
105.7929	0.5
109.0648	1.1
109.1012	1.1
109.655	0.5
111.044	0.9
112.9999	21.08
116.2597	0.5
116.9948	1.4
117.1832	0.5
122.0586	0.5
122.9842	539.36
125.6123	0.5
127.0389	1.2
132.5359	0.5
140.9947	5.79
141.0701	1.6
148.4572	0.5
150.9791	111.89
152.9083	0.6
154.078	1.4
162.7748	0.6
168.0571	1.3
168.0812	2
168.8718	2
168.9032	1.3
168.9188	1.8
168.9896	1.1
169.0654	1.1
169.0873	1
169.1012	2.3
170.919	1.3
176.5841	0.6
180.9908	0.6
186.9139	5